c Random generated cnf formula, satisfiable: false
p cnf 10 50
3 8 -7 0
-10 1 -3 0
-3 1 -8 0
2 10 5 0
1 -8 7 0
7 -1 -4 0
-9 -7 -4 0
-2 -7 -4 0
-9 7 -4 0
9 1 2 0
-9 3 -6 0
-8 -7 -4 0
-10 -4 7 0
2 10 9 0
-3 10 7 0
-10 -5 -1 0
-10 -7 -2 0
7 5 -2 0
-9 -2 -7 0
-8 9 6 0
10 7 2 0
-9 6 8 0
10 4 1 0
8 -1 10 0
-2 -4 -1 0
3 -7 -4 0
-3 -9 -7 0
7 6 -5 0
5 -6 8 0
5 1 2 0
-8 -1 -5 0
2 6 5 0
7 10 6 0
6 -8 5 0
-8 -3 -2 0
-5 4 -6 0
2 -1 -5 0
-7 4 3 0
-4 2 -8 0
-4 -2 1 0
9 -6 1 0
5 4 -8 0
1 -5 2 0
5 9 7 0
-7 -5 8 0
10 4 -6 0
-2 4 10 0
6 -3 -1 0
-3 -1 5 0
4 6 -1 0
